\ Model Capital Budgeting Problem with Risk Management
\ LP format - for model browsing. Use MPS format to capture full model detail.
Maximize
  758436.2654659229 x[0] + 516838.8955720561 x[1] + 557223.3847414552 x[2]
   + 28070.17917475999 x[3] + 696873.1112501562 x[4]
Subject To
 budget: x[0] + x[1] + x[2] + x[3] + x[4] <= 1e+06
 risk_threshold: x[0] + x[1] + x[2] + x[3] + x[4] <= 1e+06
Bounds
Binaries
 x[0] x[1] x[2] x[3] x[4]
End
